40
72
84
51
17
79
26
29
55
3
24
71
57
39
7
83
74
66
91
4
69
13
16
96
80
14
62
28
64
76
34
50
2
89
61
42
98
67
95
78
86
10
73
81
75
56
31
27
58
65
0
12
93
15
97
33
60
1
36
45
46
30
94
82
49
23
6
85
59
41
68
48
63
53
9
18
52
22
8
90
38
70
19
25
43
44
35
54
92
5
87
77
37
47
88
20
21
32
11
99
